proyfinal/src/viki/013/experimentInOfficeAgust.take6.output/b70067e4-d6cb-432a-b82b-cd1563a95cee.als.dat
{'cnf.clauses': '118081',
 'cnf.totvars': '69608',
 'conflict literals': '54',
 'conflicts': '23',
 'decisions': '9627',
 'memused.mb': '16.54',
 'outcome': 'UNSAT',
 'propagations': '37123',
 'restarts': '1',
 'solver.msecs': 36,
 'task.msecs': 121}
