proyfinal/src/viki/013/experimentInOfficeAgust.take6.output/b70067e4-d6cb-432a-b82b-cd1563a95cee.als.out
Reading from standard input... Use '--help' for help.
============================[ Problem Statistics ]=============================
|                                                                             |
|  Number of variables:         69608                                         |
|  Number of clauses:          118081                                         |
|  Parse time:                   0.03 s                                       |
|                                                                             |
============================[ Search Statistics ]==============================
| Conflicts |          ORIGINAL         |          LEARNT          | Progress |
|           |    Vars  Clauses Literals |    Limit  Clauses Lit/Cl |          |
===============================================================================
===============================================================================
restarts              : 1
conflicts             : 23             (628 /sec)
decisions             : 9627           (0.00 % random) (262982 /sec)
propagations          : 37123          (1014096 /sec)
conflict literals     : 54             (0.00 % deleted)
Memory used           : 16.54 MB
CPU time              : 0.036607 s

UNSATISFIABLE
